#HF/STO-6G POP=FULL OPT FREQ

C..C+..C

1 1
C1
C2 1 1.40
C3 1 1.40 2 120.0
H4 3 1.10 1 -120.0 2 0.0
H5 3 1.10 1 120.0 2 0.0
H6 1 1.10 3 -120.0 2 0.0
H7 2 1.10 1 -120.0 3 0.0
H8 2 1.10 1 120.0 3 0.0



