#HF/STO-6G POP=FULL OPT FREQ

CH2=CH(CHO)

0 1
C1
C2 1 1.35
C3 2 1.40 1 120.0
O4 3 1.21 2 120.0 1 0.0
H5 3 1.10 4 120.0 2 0.0
H6 2 1.10 3 120.0 1 0.0
H7 1 1.10 2 -120.0 6 0.0
H8 1 1.10 2 120.0 6 0.0



