#HF/STO-6G POP=FULL OPT FREQ

C..C+..C

0 1
C1
C2 1 1.47
C3 1 1.35 2 120.0
C4 2 1.35 1 -120.0 3 0.0
H5 3 1.10 1 -120.0 2 0.0
H6 3 1.10 1 120.0 2 0.0
H7 4 1.10 2 120.0 1 0.0
H8 4 1.10 2 -120.0 1 0.0
H9 1 1.10 2 120.0 4 0.0
H10 2 1.10 1 -120.0 4 0.0


