# B3LYP/4-31G OPT FREQ

CO

0 1
C
O 1 1.2

