#HF/STO-6G POP=FULL OPT FREQ

C=C

0 1
C1
C2 1 1.35
H3 1 1.10 2 120.0
H4 2 1.10 1 120.0 3 0.0
H5 1 1.10 2 120.0 3 180.0
H6 2 1.10 1 120.0 4 180.0


