# B3LYP/4-31G OPT FREQ

H2

0 1
H
H 1 1.2

