# B3LYP/4-31G OPT=(CALCFC,TS) FREQ

H2CO trans

0 1
C1
O2 1 1.20
H3 1 1.70 2 110.0
H4 1 1.10 3 50.0 2 180.0

