# B3LYP/4-31G OPT FREQ

H2CO balanced

0 1
C1
O2 1 1.20
H3 1 1.10 2 120.0
H4 1 1.10 2 120.0 3 180.0


